benchmarks_vrp/CMT1/min_c/CMT1_2.vrp
NAME: CMT1_2
TYPE: CVRP
COMMENT: 524.61 - Cluster Nr.2
DIMENSION: 5
CAPACITY: 160
EDGE_WEIGHT_TYPE: EUC_2D
NODE_COORD_TYPE: TWOD_COORDS
NODE_COORD_SECTION: 
5 21 10
1 30 40
2 13 13
3 5 6
4 10 17
DEPOT_SECTION: 
1
-1
DEMAND_SECTION: 
5 13
4 27
2 9
1 0
3 7
EOF
