benchmarks_vrp/CMT1/min_c/CMT1_2.tour
NAME: CMT1_2 solution
TYPE: TOUR
TOUR_SECTION:
1 4 3 2 5 -1
-1
EOF